% File represents an instance of a Composite Structure problem to be solved by a CP framework
% Created on 2025-03-26 10:41:33.461
T = 56;
n = 25;
m = 40;
edges = [(2, 1),
(7, 6),
(12, 11),
(17, 16),
(22, 21),
(3, 2),
(7, 8),
(12, 13),
(17, 18),
(22, 23),
(3, 4),
(8, 9),
(13, 14),
(18, 19),
(24, 23),
(5, 4),
(9, 10),
(14, 15),
(20, 19),
(24, 25),
(6, 1),
(6, 11),
(11, 16),
(16, 21),
(7, 2),
(7, 12),
(12, 17),
(17, 22),
(8, 3),
(8, 13),
(13, 18),
(18, 23),
(9, 4),
(9, 14),
(14, 19),
(24, 19),
(5, 10),
(10, 15),
(20, 15),
(20, 25)];
counts = [|10, 18, 10, 6,
|12, 20, 12, 6,
|12, 20, 12, 8,
|12, 20, 12, 4,
|12, 24, 12, 4,
|10, 20, 10, 10,
|12, 22, 12, 10,
|12, 20, 12, 10,
|12, 20, 12, 8,
|12, 18, 12, 4,
|10, 20, 10, 8,
|10, 22, 10, 10,
|10, 18, 10, 10,
|10, 18, 10, 8,
|10, 18, 10, 2,
|10, 16, 10, 8,
|10, 20, 10, 10,
|10, 16, 10, 8,
|10, 16, 10, 6,
|10, 18, 10, 6,
|10, 12, 10, 6,
|10, 18, 10, 6,
|10, 12, 10, 6,
|10, 16, 10, 8,
|10, 14, 10, 6|];
